50
4540

483 137
559 492
556 903
656 886
583 719
294 692
835 191
899 294
784 440
431 336
180 288
357 95
883 57
105 267
35 244
37 472
946 180
984 384
737 463
797 788
600 143
951 407
668 748
483 636
385 133
685 660
156 72
899 264
379 35
173 201
193 604
796 938
491 467
429 523
151 283
149 187
299 984
204 877
71 21
669 628
727 232
272 78
845 495
912 62
306 643
126 940
39 977
452 956
857 904
465 871
